%nprocshared=8
%mem=10GB
%chk=benzene_nics_nbo.chk
# b3lyp/6-31+g(d) nmr pop=nbo6read iop(10/46=1)

NICSinput//Created_by_py.Aroma

0 1
 C            -1.339236            -0.395853            0.000005
 C            -0.326685            -1.357730            0.000069
 C            1.012421            -0.961878            -0.000055
 C            1.339202            0.395965            0.000008
 C            0.326798            1.357700            0.000062
 C            -1.012501            0.961798            -0.000058
 H            -2.381330            -0.704010            -0.000066
 H            -0.581086            -2.414245            0.000079
 H            1.800375            -1.710234            -0.000154
 H            2.381367            0.703858            0.000007
 H            0.580952            2.414267            0.000018
 H            -1.800276            1.710353            -0.000063
 Bq                   -0.000006      -0.000010       0.000004
 Bq                    0.000009      -0.000057       1.000004
 Bq                   -0.000020       0.000036      -0.999996

$nbo npa nbo nbosum bndidx e2pert nlmo dipole cmo nrt ncs <xyz mo> $end

