%nprocshared=8
%mem=10GB
# pw91pw91/tzvp nosymm pop=full iop(3/33=1) punch=mo

naphthalene mol 2

0 1
 C                  2.96292735    1.59873768   -2.34412329
 C                  1.08607265    1.37776232    2.34412329
 C                  1.84966171    0.51291048    1.59118541
 H                  1.90254982    3.30748680   -1.93535091
 C                  2.19933829    2.46358952   -1.59118541
 C                  2.23157919    0.86211346    0.26513808
 C                  1.03390179    2.98739399    0.54127003
 C                  1.81742081    2.11438654   -0.26513808
 C                  0.67309754    2.62057013    1.81755935
 H                  3.28815543   -0.83758710   -0.16847761
 H                  0.80423336    1.13761830    3.25104686
 C                  3.01509821   -0.01089399   -0.54127003
 H                  2.14645018   -0.33098680    1.93535091
 H                  3.91358911   -0.26907560   -2.36511160
 H                  0.76084457    3.81408710    0.16847761
 C                  3.37590246    0.35592987   -1.81755935
 H                  3.24476664    1.83888170   -3.25104686
 H                  0.13541089    3.24557560    2.36511160

