%nprocshared=8
%mem=10GB
%chk=methylazulene_NICS.chk
#p nmr=giao rb3lyp/6-31g(d)

Title Card Required

0 1
 C                 -2.68122300   -0.69593600    0.00002600
 H                 -3.70024500   -1.07886000    0.00004400
 C                 -2.57389000    0.69577300    0.00011800
 H                 -3.51454800    1.24087800    0.00019500
 C                 -1.42187600    1.47672300    0.00011700
 H                 -1.57995400    2.55484700    0.00013500
 C                 -0.09125500    1.07520700    0.00002200
 C                  1.02154300    1.92053900   -0.00006600
 H                  0.98652000    3.00303200   -0.00011300
 C                  2.17511000    1.12619700   -0.00016400
 H                  3.19249700    1.50499600   -0.00025700
 C                  1.84230200   -0.23366400    0.00007700
 C                  0.43671000   -0.32326300   -0.00015200
 C                 -1.68554400   -1.66884600   -0.00009300
 H                 -2.03235300   -2.69928100   -0.00009900
 C                 -0.30028000   -1.49721300   -0.00018000
 H                  0.28392100   -2.41707300   -0.00020100
 C                  2.80571000   -1.38303600    0.00021900
 H                  2.68120800   -2.02129400    0.88361600
 H                  2.68123100   -2.02145000   -0.88306500
 H                  3.83788100   -1.02067500    0.00020000

