%nproc=8
%mem=10gb
# b3lyp/6-31+g(d)

title

0 1
 C            -0.964272            0.091779            2.381653
 H            -1.971861            -1.817752            2.456610
 C            -0.183423            0.970953            1.600934
 C            0.964272            -0.091779            -2.381653
 C            -0.210695            -0.639378            -0.273525
 C            0.210695            0.639378            0.273525
 H            -0.132034            -1.930252            -2.012877
 H            1.249415            -0.376075            -3.394937
 H            1.314275            2.459472            -0.135150
 C            -0.997342            -1.499497            0.544246
 H            -1.314275            -2.459472            0.135150
 H            -1.249415            0.376075            3.394937
 C            0.997342            1.499497            -0.544246
 H            0.132034            1.930252            2.012877
 C            -1.368724            -1.135918            1.856505
 C            1.368724            1.135918            -1.856505
 H            1.971861            1.817752            -2.456610
 C            0.183423            -0.970953            -1.600934


