%nprocshared=8
%mem=10GB
#p nmr=giao rb3lyp/6-311+g(2d,p) scrf=(smd,solvent=chloroform)

Benzene//NMR

0 1
 C                 -0.01990700   -1.39174700    0.00000100
 C                  1.19536900   -0.71306400   -0.00000700
 C                  1.21525700    0.67862700    0.00001100
 C                  0.01984500    1.39174800   -0.00000100
 C                 -1.19533800    0.71311600   -0.00000800
 C                 -1.21522700   -0.67868000    0.00000600
 H                 -0.03531700   -2.47537300   -0.00000600
 H                  2.12604500   -1.26833800   -0.00000900
 H                  2.16140200    1.20710800   -0.00000200
 H                  0.03539700    2.47537200    0.00000200
 H                 -2.12608400    1.26827300   -0.00001000
 H                 -2.16144000   -1.20704000    0.00001600

